
        $ From http://www.csplib.org/Problems/prob009/data/helmut.pdf
        $ Problem number 148
        $ Sequence length : 25
        language ESSENCE' 1.0
        letting sizemaster be 506
        letting sizes be sequence(1,7,24,26,33,35,40,45,47,51,55,69,87,90,93,96,117,125,134,145,146,147,160,162,199)
        